FLOW,20,5,5
1,64,0,68,3,28,4,48,2,95
0,53,1,50,4,5,2,42,3,73
1,60,0,82,3,23,2,7,4,43
1,96,0,14,4,68,3,90,2,26
0,42,1,76,2,84,3,62,4,66
1,7,0,50,4,90,3,32,2,94
0,94,1,38,2,78,4,61,3,67
0,29,1,80,4,94,3,53,2,31
1,54,0,100,4,65,2,8,3,86
1,77,0,52,2,22,3,8,4,85
0,25,1,11,4,45,3,90,2,3
1,41,0,35,3,10,2,41,4,40
0,85,1,26,2,97,3,88,4,58
0,36,1,86,3,5,2,46,4,7
0,21,1,62,2,13,4,80,3,63
0,65,1,59,4,53,3,77,2,55
1,55,0,83,4,75,2,35,3,59
0,33,1,15,4,5,2,31,3,59
1,22,0,39,2,85,3,83,4,52
0,49,1,49,2,43,4,60,3,16
